*Heading
 cylinder.inp
*NODE
1, 0, 0, 0
2, 100, 0, 0
3, 150, 0, 0
4, 149.42920471376, 13.073361412149, 0
5, 99.619469809175, 8.7155742747658, 0
6, 100, 0, 100
7, 150, 0, 100
8, 0, 0, 100
9, 149.42920471376, 13.073361412149, 100
10, 99.619469809175, 8.7155742747658, 100
11, 106.24999999992, 0, 0
12, 112.49999999984, 0, 0
13, 118.74999999976, 0, 0
14, 124.99999999969, 0, 0
15, 131.2499999997, 0, 0
16, 137.4999999998, 0, 0
17, 143.7499999999, 0, 0
18, 103.12499999996, 0, 0
19, 109.37499999988, 0, 0
20, 115.6249999998, 0, 0
21, 121.87499999972, 0, 0
22, 128.1249999997, 0, 0
23, 134.37499999976, 0, 0
24, 140.62499999985, 0, 0
25, 146.87499999995, 0, 0
26, 149.85723323703, 6.5429081105521, 0
27, 143.2029878507, 12.528638019977, 0
28, 136.97677098764, 11.983914627805, 0
29, 130.75055412458, 11.439191235634, 0
30, 124.52433726153, 10.894467843463, 0
31, 118.29812039844, 10.349744451289, 0
32, 112.07190353536, 9.8050210591147, 0
33, 105.84568667226, 9.2602976669397, 0
34, 146.31609628223, 12.800999716063, 0
35, 140.08987941917, 12.256276323891, 0
36, 133.86366255609, 11.711552931718, 0
37, 127.63744569305, 11.166829539548, 0
38, 121.41122882999, 10.622106147376, 0
39, 115.1850119669, 10.077382755202, 0
40, 108.95879510381, 9.5326593630274, 0
41, 102.73257824072, 8.9879359708531, 0
42, 99.904822158248, 4.3619387351052, 0
43, 106.24999999992, 0, 100
44, 112.49999999984, 0, 100
45, 118.74999999976, 0, 100
46, 124.99999999969, 0, 100
47, 131.2499999997, 0, 100
48, 137.4999999998, 0, 100
49, 143.7499999999, 0, 100
50, 103.12499999996, 0, 100
51, 109.37499999988, 0, 100
52, 115.6249999998, 0, 100
53, 121.87499999972, 0, 100
54, 128.1249999997, 0, 100
55, 134.37499999976, 0, 100
56, 140.62499999985, 0, 100
57, 146.87499999995, 0, 100
58, 149.85723323703, 6.5429081105521, 100
59, 143.2029878507, 12.528638019977, 100
60, 136.97677098764, 11.983914627805, 100
61, 130.75055412458, 11.439191235634, 100
62, 124.52433726153, 10.894467843463, 100
63, 118.29812039844, 10.349744451289, 100
64, 112.07190353536, 9.8050210591147, 100
65, 105.84568667226, 9.2602976669397, 100
66, 146.31609628223, 12.800999716063, 100
67, 140.08987941917, 12.256276323891, 100
68, 133.86366255609, 11.711552931718, 100
69, 127.63744569305, 11.166829539548, 100
70, 121.41122882999, 10.622106147376, 100
71, 115.1850119669, 10.077382755202, 100
72, 108.95879510381, 9.5326593630274, 100
73, 102.73257824072, 8.9879359708531, 100
74, 99.904822158248, 4.3619387351052, 100
75, 100, 0, 25
76, 100, 0, 50
77, 100, 0, 75
78, 100, 0, 12.500000000008
79, 100, 0, 37.5
80, 100, 0, 62.5
81, 100, 0, 87.5
82, 150, 0, 25
83, 150, 0, 50
84, 150, 0, 75
85, 150, 0, 12.500000000008
86, 150, 0, 37.5
87, 150, 0, 62.5
88, 150, 0, 87.5
89, 149.42920471376, 13.073361412149, 25
90, 149.42920471376, 13.073361412149, 50
91, 149.42920471376, 13.073361412149, 75
92, 149.42920471376, 13.073361412149, 12.500000000008
93, 149.42920471376, 13.073361412149, 37.5
94, 149.42920471376, 13.073361412149, 62.5
95, 149.42920471376, 13.073361412149, 87.5
96, 99.619469809175, 8.7155742747658, 25
97, 99.619469809175, 8.7155742747658, 50
98, 99.619469809175, 8.7155742747658, 75
99, 99.619469809175, 8.7155742747658, 12.500000000008
100, 99.619469809175, 8.7155742747658, 37.5
101, 99.619469809175, 8.7155742747658, 62.5
102, 99.619469809175, 8.7155742747658, 87.5
103, 106.04784333609, 4.6301488334698, 0
104, 112.2859517676, 4.9025105295573, 0
105, 118.5240601991, 5.1748722256444, 0
106, 124.76216863061, 5.4472339217314, 0
107, 131.00027706214, 5.7195956178169, 0
108, 137.23838549372, 5.9919573139025, 0
109, 143.4764939253, 6.2643190099883, 0
110, 106.24999999992, 0, 25
111, 106.24999999992, 0, 50
112, 106.24999999992, 0, 75
113, 112.49999999984, 0, 25
114, 112.49999999984, 0, 50
115, 112.49999999984, 0, 75
116, 118.74999999976, 0, 25
117, 118.74999999976, 0, 50
118, 118.74999999976, 0, 75
119, 124.99999999969, 0, 25
120, 124.99999999969, 0, 50
121, 124.99999999969, 0, 75
122, 131.2499999997, 0, 25
123, 131.2499999997, 0, 50
124, 131.2499999997, 0, 75
125, 137.4999999998, 0, 25
126, 137.4999999998, 0, 50
127, 137.4999999998, 0, 75
128, 143.7499999999, 0, 25
129, 143.7499999999, 0, 50
130, 143.7499999999, 0, 75
131, 106.24999999992, 0, 12.5
132, 103.12499999996, 0, 25
133, 106.24999999992, 0, 37.5
134, 103.12499999996, 0, 50
135, 106.24999999992, 0, 62.5
136, 103.12499999996, 0, 75
137, 106.24999999992, 0, 87.5
138, 112.49999999984, 0, 12.5
139, 109.37499999988, 0, 25
140, 112.49999999984, 0, 37.5
141, 109.37499999988, 0, 50
142, 112.49999999984, 0, 62.5
143, 109.37499999988, 0, 75
144, 112.49999999984, 0, 87.5
145, 118.74999999976, 0, 12.5
146, 115.6249999998, 0, 25
147, 118.74999999976, 0, 37.5
148, 115.6249999998, 0, 50
149, 118.74999999976, 0, 62.5
150, 115.6249999998, 0, 75
151, 118.74999999976, 0, 87.5
152, 124.99999999969, 0, 12.5
153, 121.87499999973, 0, 25
154, 124.99999999969, 0, 37.5
155, 121.87499999973, 0, 50
156, 124.99999999969, 0, 62.5
157, 121.87499999973, 0, 75
158, 124.99999999969, 0, 87.5
159, 131.2499999997, 0, 12.5
160, 128.12499999969, 0, 25
161, 131.2499999997, 0, 37.5
162, 128.12499999969, 0, 50
163, 131.2499999997, 0, 62.5
164, 128.12499999969, 0, 75
165, 131.2499999997, 0, 87.5
166, 137.4999999998, 0, 12.5
167, 134.37499999975, 0, 25
168, 137.4999999998, 0, 37.5
169, 134.37499999975, 0, 50
170, 137.4999999998, 0, 62.5
171, 134.37499999975, 0, 75
172, 137.4999999998, 0, 87.5
173, 143.7499999999, 0, 12.5
174, 140.62499999985, 0, 25
175, 143.7499999999, 0, 37.5
176, 140.62499999985, 0, 50
177, 143.7499999999, 0, 62.5
178, 140.62499999985, 0, 75
179, 143.7499999999, 0, 87.5
180, 146.87499999995, 0, 25
181, 146.87499999995, 0, 50
182, 146.87499999995, 0, 75
183, 149.85723334799, 6.5429055690834, 25
184, 149.85723334799, 6.5429055690834, 50
185, 149.85723334799, 6.5429055690834, 75
186, 143.2029878507, 12.528638019977, 25
187, 143.2029878507, 12.528638019977, 50
188, 143.2029878507, 12.528638019977, 75
189, 136.97677098764, 11.983914627805, 25
190, 136.97677098764, 11.983914627805, 50
191, 136.97677098764, 11.983914627805, 75
192, 130.75055412458, 11.439191235634, 25
193, 130.75055412458, 11.439191235634, 50
194, 130.75055412458, 11.439191235634, 75
195, 124.52433726153, 10.894467843463, 25
196, 124.52433726153, 10.894467843463, 50
197, 124.52433726153, 10.894467843463, 75
198, 118.29812039844, 10.349744451289, 25
199, 118.29812039844, 10.349744451289, 50
200, 118.29812039844, 10.349744451289, 75
201, 112.07190353536, 9.8050210591147, 25
202, 112.07190353536, 9.8050210591147, 50
203, 112.07190353536, 9.8050210591147, 75
204, 105.84568667226, 9.2602976669397, 25
205, 105.84568667226, 9.2602976669397, 50
206, 105.84568667226, 9.2602976669397, 75
207, 143.2029878507, 12.528638019977, 12.5
208, 146.31609628223, 12.800999716063, 25
209, 143.2029878507, 12.528638019977, 37.5
210, 146.31609628223, 12.800999716063, 50
211, 143.2029878507, 12.528638019977, 62.5
212, 146.31609628223, 12.800999716063, 75
213, 143.2029878507, 12.528638019977, 87.5
214, 136.97677098764, 11.983914627805, 12.5
215, 140.08987941917, 12.256276323891, 25
216, 136.97677098764, 11.983914627805, 37.5
217, 140.08987941917, 12.256276323891, 50
218, 136.97677098764, 11.983914627805, 62.5
219, 140.08987941917, 12.256276323891, 75
220, 136.97677098764, 11.983914627805, 87.5
221, 130.75055412458, 11.439191235634, 12.5
222, 133.86366255611, 11.711552931719, 25
223, 130.75055412458, 11.439191235634, 37.5
224, 133.86366255611, 11.711552931719, 50
225, 130.75055412458, 11.439191235634, 62.5
226, 133.86366255611, 11.711552931719, 75
227, 130.75055412458, 11.439191235634, 87.5
228, 124.52433726153, 10.894467843463, 12.5
229, 127.63744569306, 11.166829539548, 25
230, 124.52433726153, 10.894467843463, 37.5
231, 127.63744569306, 11.166829539548, 50
232, 124.52433726153, 10.894467843463, 62.5
233, 127.63744569306, 11.166829539548, 75
234, 124.52433726153, 10.894467843463, 87.5
235, 118.29812039844, 10.349744451289, 12.5
236, 121.41122882999, 10.622106147376, 25
237, 118.29812039844, 10.349744451289, 37.5
238, 121.41122882999, 10.622106147376, 50
239, 118.29812039844, 10.349744451289, 62.5
240, 121.41122882999, 10.622106147376, 75
241, 118.29812039844, 10.349744451289, 87.5
242, 112.07190353536, 9.8050210591147, 12.5
243, 115.1850119669, 10.077382755202, 25
244, 112.07190353536, 9.8050210591147, 37.5
245, 115.1850119669, 10.077382755202, 50
246, 112.07190353536, 9.8050210591147, 62.5
247, 115.1850119669, 10.077382755202, 75
248, 112.07190353536, 9.8050210591147, 87.5
249, 105.84568667226, 9.2602976669397, 12.5
250, 108.95879510381, 9.5326593630272, 25
251, 105.84568667226, 9.2602976669397, 37.5
252, 108.95879510381, 9.5326593630272, 50
253, 105.84568667226, 9.2602976669397, 62.5
254, 108.95879510381, 9.5326593630272, 75
255, 105.84568667226, 9.2602976669397, 87.5
256, 102.73257824072, 8.9879359708527, 25
257, 102.73257824072, 8.9879359708527, 50
258, 102.73257824072, 8.9879359708527, 75
259, 99.90482215839, 4.3619387318494, 25
260, 99.90482215839, 4.3619387318494, 50
261, 99.90482215839, 4.3619387318494, 75
262, 106.04784333609, 4.6301488334698, 100
263, 112.2859517676, 4.9025105295573, 100
264, 118.5240601991, 5.1748722256444, 100
265, 124.76216863061, 5.4472339217314, 100
266, 131.00027706214, 5.7195956178169, 100
267, 137.23838549372, 5.9919573139025, 100
268, 143.4764939253, 6.2643190099883, 100
269, 106.04784333609, 4.6301488334698, 25
270, 106.04784333609, 4.6301488334698, 50
271, 106.04784333609, 4.6301488334698, 75
272, 112.2859517676, 4.9025105295573, 25
273, 112.2859517676, 4.9025105295573, 50
274, 112.2859517676, 4.9025105295573, 75
275, 118.5240601991, 5.1748722256444, 25
276, 118.5240601991, 5.1748722256444, 50
277, 118.5240601991, 5.1748722256444, 75
278, 124.76216863061, 5.4472339217314, 25
279, 124.76216863061, 5.4472339217314, 50
280, 124.76216863061, 5.4472339217314, 75
281, 131.00027706214, 5.7195956178169, 25
282, 131.00027706214, 5.7195956178169, 50
283, 131.00027706214, 5.7195956178169, 75
284, 137.23838549372, 5.9919573139025, 25
285, 137.23838549372, 5.9919573139025, 50
286, 137.23838549372, 5.9919573139025, 75
287, 143.4764939253, 6.2643190099883, 25
288, 143.4764939253, 6.2643190099883, 50
289, 143.4764939253, 6.2643190099883, 75
******* E L E M E N T S *************
*ELEMENT, type=T3D3, ELSET=Line1
11, 2, 18, 11
12, 11, 19, 12
13, 12, 20, 13
14, 13, 21, 14
15, 14, 22, 15
16, 15, 23, 16
17, 16, 24, 17
18, 17, 25, 3
*ELEMENT, type=T3D3, ELSET=Line2
19, 3, 26, 4
*ELEMENT, type=T3D3, ELSET=Line3
20, 4, 34, 27
21, 27, 35, 28
22, 28, 36, 29
23, 29, 37, 30
24, 30, 38, 31
25, 31, 39, 32
26, 32, 40, 33
27, 33, 41, 5
*ELEMENT, type=T3D3, ELSET=Line4
28, 5, 42, 2
*ELEMENT, type=T3D3, ELSET=Line6
29, 6, 50, 43
30, 43, 51, 44
31, 44, 52, 45
32, 45, 53, 46
33, 46, 54, 47
34, 47, 55, 48
35, 48, 56, 49
36, 49, 57, 7
*ELEMENT, type=T3D3, ELSET=Line7
37, 7, 58, 9
*ELEMENT, type=T3D3, ELSET=Line8
38, 9, 66, 59
39, 59, 67, 60
40, 60, 68, 61
41, 61, 69, 62
42, 62, 70, 63
43, 63, 71, 64
44, 64, 72, 65
45, 65, 73, 10
*ELEMENT, type=T3D3, ELSET=Line9
46, 10, 74, 6
*ELEMENT, type=T3D3, ELSET=Line11
47, 2, 78, 75
48, 75, 79, 76
49, 76, 80, 77
50, 77, 81, 6
*ELEMENT, type=T3D3, ELSET=Line12
51, 3, 85, 82
52, 82, 86, 83
53, 83, 87, 84
54, 84, 88, 7
*ELEMENT, type=T3D3, ELSET=Line16
55, 4, 92, 89
56, 89, 93, 90
57, 90, 94, 91
58, 91, 95, 9
*ELEMENT, type=T3D3, ELSET=Line20
59, 5, 99, 96
60, 96, 100, 97
61, 97, 101, 98
62, 98, 102, 10
*ELEMENT, type=CPS8, ELSET=Surface1
63, 2, 11, 33, 5, 18, 103, 41, 42
64, 11, 12, 32, 33, 19, 104, 40, 103
65, 12, 13, 31, 32, 20, 105, 39, 104
66, 13, 14, 30, 31, 21, 106, 38, 105
67, 14, 15, 29, 30, 22, 107, 37, 106
68, 15, 16, 28, 29, 23, 108, 36, 107
69, 16, 17, 27, 28, 24, 109, 35, 108
70, 17, 3, 4, 27, 25, 26, 34, 109
*ELEMENT, type=CPS8, ELSET=Surface13
71, 2, 11, 110, 75, 18, 131, 132, 78
72, 75, 110, 111, 76, 132, 133, 134, 79
73, 76, 111, 112, 77, 134, 135, 136, 80
74, 77, 112, 43, 6, 136, 137, 50, 81
75, 11, 12, 113, 110, 19, 138, 139, 131
76, 110, 113, 114, 111, 139, 140, 141, 133
77, 111, 114, 115, 112, 141, 142, 143, 135
78, 112, 115, 44, 43, 143, 144, 51, 137
79, 12, 13, 116, 113, 20, 145, 146, 138
80, 113, 116, 117, 114, 146, 147, 148, 140
81, 114, 117, 118, 115, 148, 149, 150, 142
82, 115, 118, 45, 44, 150, 151, 52, 144
83, 13, 14, 119, 116, 21, 152, 153, 145
84, 116, 119, 120, 117, 153, 154, 155, 147
85, 117, 120, 121, 118, 155, 156, 157, 149
86, 118, 121, 46, 45, 157, 158, 53, 151
87, 14, 15, 122, 119, 22, 159, 160, 152
88, 119, 122, 123, 120, 160, 161, 162, 154
89, 120, 123, 124, 121, 162, 163, 164, 156
90, 121, 124, 47, 46, 164, 165, 54, 158
91, 15, 16, 125, 122, 23, 166, 167, 159
92, 122, 125, 126, 123, 167, 168, 169, 161
93, 123, 126, 127, 124, 169, 170, 171, 163
94, 124, 127, 48, 47, 171, 172, 55, 165
95, 16, 17, 128, 125, 24, 173, 174, 166
96, 125, 128, 129, 126, 174, 175, 176, 168
97, 126, 129, 130, 127, 176, 177, 178, 170
98, 127, 130, 49, 48, 178, 179, 56, 172
99, 17, 3, 82, 128, 25, 85, 180, 173
100, 128, 82, 83, 129, 180, 86, 181, 175
101, 129, 83, 84, 130, 181, 87, 182, 177
102, 130, 84, 7, 49, 182, 88, 57, 179
*ELEMENT, type=CPS8, ELSET=Surface17
103, 3, 4, 89, 82, 26, 92, 183, 85
104, 82, 89, 90, 83, 183, 93, 184, 86
105, 83, 90, 91, 84, 184, 94, 185, 87
106, 84, 91, 9, 7, 185, 95, 58, 88
*ELEMENT, type=CPS8, ELSET=Surface21
107, 4, 27, 186, 89, 34, 207, 208, 92
108, 89, 186, 187, 90, 208, 209, 210, 93
109, 90, 187, 188, 91, 210, 211, 212, 94
110, 91, 188, 59, 9, 212, 213, 66, 95
111, 27, 28, 189, 186, 35, 214, 215, 207
112, 186, 189, 190, 187, 215, 216, 217, 209
113, 187, 190, 191, 188, 217, 218, 219, 211
114, 188, 191, 60, 59, 219, 220, 67, 213
115, 28, 29, 192, 189, 36, 221, 222, 214
116, 189, 192, 193, 190, 222, 223, 224, 216
117, 190, 193, 194, 191, 224, 225, 226, 218
118, 191, 194, 61, 60, 226, 227, 68, 220
119, 29, 30, 195, 192, 37, 228, 229, 221
120, 192, 195, 196, 193, 229, 230, 231, 223
121, 193, 196, 197, 194, 231, 232, 233, 225
122, 194, 197, 62, 61, 233, 234, 69, 227
123, 30, 31, 198, 195, 38, 235, 236, 228
124, 195, 198, 199, 196, 236, 237, 238, 230
125, 196, 199, 200, 197, 238, 239, 240, 232
126, 197, 200, 63, 62, 240, 241, 70, 234
127, 31, 32, 201, 198, 39, 242, 243, 235
128, 198, 201, 202, 199, 243, 244, 245, 237
129, 199, 202, 203, 200, 245, 246, 247, 239
130, 200, 203, 64, 63, 247, 248, 71, 241
131, 32, 33, 204, 201, 40, 249, 250, 242
132, 201, 204, 205, 202, 250, 251, 252, 244
133, 202, 205, 206, 203, 252, 253, 254, 246
134, 203, 206, 65, 64, 254, 255, 72, 248
135, 33, 5, 96, 204, 41, 99, 256, 249
136, 204, 96, 97, 205, 256, 100, 257, 251
137, 205, 97, 98, 206, 257, 101, 258, 253
138, 206, 98, 10, 65, 258, 102, 73, 255
*ELEMENT, type=CPS8, ELSET=Surface25
139, 5, 2, 75, 96, 42, 78, 259, 99
140, 96, 75, 76, 97, 259, 79, 260, 100
141, 97, 76, 77, 98, 260, 80, 261, 101
142, 98, 77, 6, 10, 261, 81, 74, 102
*ELEMENT, type=CPS8, ELSET=Surface26
143, 6, 43, 65, 10, 50, 262, 73, 74
144, 43, 44, 64, 65, 51, 263, 72, 262
145, 44, 45, 63, 64, 52, 264, 71, 263
146, 45, 46, 62, 63, 53, 265, 70, 264
147, 46, 47, 61, 62, 54, 266, 69, 265
148, 47, 48, 60, 61, 55, 267, 68, 266
149, 48, 49, 59, 60, 56, 268, 67, 267
150, 49, 7, 9, 59, 57, 58, 66, 268
*ELEMENT, type=C3D20, ELSET=Volume1
151, 2, 11, 33, 5, 75, 110, 204, 96, 18, 103, 41, 42, 132, 269, 256, 
259, 78, 131, 249, 99
152, 75, 110, 204, 96, 76, 111, 205, 97, 132, 269, 256, 259, 134, 270, 257, 
260, 79, 133, 251, 100
153, 76, 111, 205, 97, 77, 112, 206, 98, 134, 270, 257, 260, 136, 271, 258, 
261, 80, 135, 253, 101
154, 77, 112, 206, 98, 6, 43, 65, 10, 136, 271, 258, 261, 50, 262, 73, 
74, 81, 137, 255, 102
155, 11, 12, 32, 33, 110, 113, 201, 204, 19, 104, 40, 103, 139, 272, 250, 
269, 131, 138, 242, 249
156, 110, 113, 201, 204, 111, 114, 202, 205, 139, 272, 250, 269, 141, 273, 252, 
270, 133, 140, 244, 251
157, 111, 114, 202, 205, 112, 115, 203, 206, 141, 273, 252, 270, 143, 274, 254, 
271, 135, 142, 246, 253
158, 112, 115, 203, 206, 43, 44, 64, 65, 143, 274, 254, 271, 51, 263, 72, 
262, 137, 144, 248, 255
159, 12, 13, 31, 32, 113, 116, 198, 201, 20, 105, 39, 104, 146, 275, 243, 
272, 138, 145, 235, 242
160, 113, 116, 198, 201, 114, 117, 199, 202, 146, 275, 243, 272, 148, 276, 245, 
273, 140, 147, 237, 244
161, 114, 117, 199, 202, 115, 118, 200, 203, 148, 276, 245, 273, 150, 277, 247, 
274, 142, 149, 239, 246
162, 115, 118, 200, 203, 44, 45, 63, 64, 150, 277, 247, 274, 52, 264, 71, 
263, 144, 151, 241, 248
163, 13, 14, 30, 31, 116, 119, 195, 198, 21, 106, 38, 105, 153, 278, 236, 
275, 145, 152, 228, 235
164, 116, 119, 195, 198, 117, 120, 196, 199, 153, 278, 236, 275, 155, 279, 238, 
276, 147, 154, 230, 237
165, 117, 120, 196, 199, 118, 121, 197, 200, 155, 279, 238, 276, 157, 280, 240, 
277, 149, 156, 232, 239
166, 118, 121, 197, 200, 45, 46, 62, 63, 157, 280, 240, 277, 53, 265, 70, 
264, 151, 158, 234, 241
167, 14, 15, 29, 30, 119, 122, 192, 195, 22, 107, 37, 106, 160, 281, 229, 
278, 152, 159, 221, 228
168, 119, 122, 192, 195, 120, 123, 193, 196, 160, 281, 229, 278, 162, 282, 231, 
279, 154, 161, 223, 230
169, 120, 123, 193, 196, 121, 124, 194, 197, 162, 282, 231, 279, 164, 283, 233, 
280, 156, 163, 225, 232
170, 121, 124, 194, 197, 46, 47, 61, 62, 164, 283, 233, 280, 54, 266, 69, 
265, 158, 165, 227, 234
171, 15, 16, 28, 29, 122, 125, 189, 192, 23, 108, 36, 107, 167, 284, 222, 
281, 159, 166, 214, 221
172, 122, 125, 189, 192, 123, 126, 190, 193, 167, 284, 222, 281, 169, 285, 224, 
282, 161, 168, 216, 223
173, 123, 126, 190, 193, 124, 127, 191, 194, 169, 285, 224, 282, 171, 286, 226, 
283, 163, 170, 218, 225
174, 124, 127, 191, 194, 47, 48, 60, 61, 171, 286, 226, 283, 55, 267, 68, 
266, 165, 172, 220, 227
175, 16, 17, 27, 28, 125, 128, 186, 189, 24, 109, 35, 108, 174, 287, 215, 
284, 166, 173, 207, 214
176, 125, 128, 186, 189, 126, 129, 187, 190, 174, 287, 215, 284, 176, 288, 217, 
285, 168, 175, 209, 216
177, 126, 129, 187, 190, 127, 130, 188, 191, 176, 288, 217, 285, 178, 289, 219, 
286, 170, 177, 211, 218
178, 127, 130, 188, 191, 48, 49, 59, 60, 178, 289, 219, 286, 56, 268, 67, 
267, 172, 179, 213, 220
179, 17, 3, 4, 27, 128, 82, 89, 186, 25, 26, 34, 109, 180, 183, 208, 
287, 173, 85, 92, 207
180, 128, 82, 89, 186, 129, 83, 90, 187, 180, 183, 208, 287, 181, 184, 210, 
288, 175, 86, 93, 209
181, 129, 83, 90, 187, 130, 84, 91, 188, 181, 184, 210, 288, 182, 185, 212, 
289, 177, 87, 94, 211
182, 130, 84, 91, 188, 49, 7, 9, 59, 182, 185, 212, 289, 57, 58, 66, 
268, 179, 88, 95, 213
