*HEADING
FM-04a Phase 31 A heat transfer cross-check
*NODE
1, 0.000000000e+00, 0.000000000e+00, 0.000000000e+00
2, 1.000000000e-02, 0.000000000e+00, 0.000000000e+00
3, 2.000000000e-02, 0.000000000e+00, 0.000000000e+00
4, 3.000000000e-02, 0.000000000e+00, 0.000000000e+00
5, 4.000000000e-02, 0.000000000e+00, 0.000000000e+00
6, 5.000000000e-02, 0.000000000e+00, 0.000000000e+00
7, 6.000000000e-02, 0.000000000e+00, 0.000000000e+00
8, 7.000000000e-02, 0.000000000e+00, 0.000000000e+00
9, 8.000000000e-02, 0.000000000e+00, 0.000000000e+00
10, 9.000000000e-02, 0.000000000e+00, 0.000000000e+00
11, 1.000000000e-01, 0.000000000e+00, 0.000000000e+00
12, 0.000000000e+00, 1.000000000e-02, 0.000000000e+00
13, 1.000000000e-02, 1.000000000e-02, 0.000000000e+00
14, 2.000000000e-02, 1.000000000e-02, 0.000000000e+00
15, 3.000000000e-02, 1.000000000e-02, 0.000000000e+00
16, 4.000000000e-02, 1.000000000e-02, 0.000000000e+00
17, 5.000000000e-02, 1.000000000e-02, 0.000000000e+00
18, 6.000000000e-02, 1.000000000e-02, 0.000000000e+00
19, 7.000000000e-02, 1.000000000e-02, 0.000000000e+00
20, 8.000000000e-02, 1.000000000e-02, 0.000000000e+00
21, 9.000000000e-02, 1.000000000e-02, 0.000000000e+00
22, 1.000000000e-01, 1.000000000e-02, 0.000000000e+00
23, 0.000000000e+00, 2.000000000e-02, 0.000000000e+00
24, 1.000000000e-02, 2.000000000e-02, 0.000000000e+00
25, 2.000000000e-02, 2.000000000e-02, 0.000000000e+00
26, 3.000000000e-02, 2.000000000e-02, 0.000000000e+00
27, 4.000000000e-02, 2.000000000e-02, 0.000000000e+00
28, 5.000000000e-02, 2.000000000e-02, 0.000000000e+00
29, 6.000000000e-02, 2.000000000e-02, 0.000000000e+00
30, 7.000000000e-02, 2.000000000e-02, 0.000000000e+00
31, 8.000000000e-02, 2.000000000e-02, 0.000000000e+00
32, 9.000000000e-02, 2.000000000e-02, 0.000000000e+00
33, 1.000000000e-01, 2.000000000e-02, 0.000000000e+00
34, 0.000000000e+00, 0.000000000e+00, 1.000000000e-02
35, 1.000000000e-02, 0.000000000e+00, 1.000000000e-02
36, 2.000000000e-02, 0.000000000e+00, 1.000000000e-02
37, 3.000000000e-02, 0.000000000e+00, 1.000000000e-02
38, 4.000000000e-02, 0.000000000e+00, 1.000000000e-02
39, 5.000000000e-02, 0.000000000e+00, 1.000000000e-02
40, 6.000000000e-02, 0.000000000e+00, 1.000000000e-02
41, 7.000000000e-02, 0.000000000e+00, 1.000000000e-02
42, 8.000000000e-02, 0.000000000e+00, 1.000000000e-02
43, 9.000000000e-02, 0.000000000e+00, 1.000000000e-02
44, 1.000000000e-01, 0.000000000e+00, 1.000000000e-02
45, 0.000000000e+00, 1.000000000e-02, 1.000000000e-02
46, 1.000000000e-02, 1.000000000e-02, 1.000000000e-02
47, 2.000000000e-02, 1.000000000e-02, 1.000000000e-02
48, 3.000000000e-02, 1.000000000e-02, 1.000000000e-02
49, 4.000000000e-02, 1.000000000e-02, 1.000000000e-02
50, 5.000000000e-02, 1.000000000e-02, 1.000000000e-02
51, 6.000000000e-02, 1.000000000e-02, 1.000000000e-02
52, 7.000000000e-02, 1.000000000e-02, 1.000000000e-02
53, 8.000000000e-02, 1.000000000e-02, 1.000000000e-02
54, 9.000000000e-02, 1.000000000e-02, 1.000000000e-02
55, 1.000000000e-01, 1.000000000e-02, 1.000000000e-02
56, 0.000000000e+00, 2.000000000e-02, 1.000000000e-02
57, 1.000000000e-02, 2.000000000e-02, 1.000000000e-02
58, 2.000000000e-02, 2.000000000e-02, 1.000000000e-02
59, 3.000000000e-02, 2.000000000e-02, 1.000000000e-02
60, 4.000000000e-02, 2.000000000e-02, 1.000000000e-02
61, 5.000000000e-02, 2.000000000e-02, 1.000000000e-02
62, 6.000000000e-02, 2.000000000e-02, 1.000000000e-02
63, 7.000000000e-02, 2.000000000e-02, 1.000000000e-02
64, 8.000000000e-02, 2.000000000e-02, 1.000000000e-02
65, 9.000000000e-02, 2.000000000e-02, 1.000000000e-02
66, 1.000000000e-01, 2.000000000e-02, 1.000000000e-02
67, 0.000000000e+00, 0.000000000e+00, 2.000000000e-02
68, 1.000000000e-02, 0.000000000e+00, 2.000000000e-02
69, 2.000000000e-02, 0.000000000e+00, 2.000000000e-02
70, 3.000000000e-02, 0.000000000e+00, 2.000000000e-02
71, 4.000000000e-02, 0.000000000e+00, 2.000000000e-02
72, 5.000000000e-02, 0.000000000e+00, 2.000000000e-02
73, 6.000000000e-02, 0.000000000e+00, 2.000000000e-02
74, 7.000000000e-02, 0.000000000e+00, 2.000000000e-02
75, 8.000000000e-02, 0.000000000e+00, 2.000000000e-02
76, 9.000000000e-02, 0.000000000e+00, 2.000000000e-02
77, 1.000000000e-01, 0.000000000e+00, 2.000000000e-02
78, 0.000000000e+00, 1.000000000e-02, 2.000000000e-02
79, 1.000000000e-02, 1.000000000e-02, 2.000000000e-02
80, 2.000000000e-02, 1.000000000e-02, 2.000000000e-02
81, 3.000000000e-02, 1.000000000e-02, 2.000000000e-02
82, 4.000000000e-02, 1.000000000e-02, 2.000000000e-02
83, 5.000000000e-02, 1.000000000e-02, 2.000000000e-02
84, 6.000000000e-02, 1.000000000e-02, 2.000000000e-02
85, 7.000000000e-02, 1.000000000e-02, 2.000000000e-02
86, 8.000000000e-02, 1.000000000e-02, 2.000000000e-02
87, 9.000000000e-02, 1.000000000e-02, 2.000000000e-02
88, 1.000000000e-01, 1.000000000e-02, 2.000000000e-02
89, 0.000000000e+00, 2.000000000e-02, 2.000000000e-02
90, 1.000000000e-02, 2.000000000e-02, 2.000000000e-02
91, 2.000000000e-02, 2.000000000e-02, 2.000000000e-02
92, 3.000000000e-02, 2.000000000e-02, 2.000000000e-02
93, 4.000000000e-02, 2.000000000e-02, 2.000000000e-02
94, 5.000000000e-02, 2.000000000e-02, 2.000000000e-02
95, 6.000000000e-02, 2.000000000e-02, 2.000000000e-02
96, 7.000000000e-02, 2.000000000e-02, 2.000000000e-02
97, 8.000000000e-02, 2.000000000e-02, 2.000000000e-02
98, 9.000000000e-02, 2.000000000e-02, 2.000000000e-02
99, 1.000000000e-01, 2.000000000e-02, 2.000000000e-02
*ELEMENT, TYPE=C3D8, ELSET=BAR
1, 1, 2, 13, 12, 34, 35, 46, 45
2, 2, 3, 14, 13, 35, 36, 47, 46
3, 3, 4, 15, 14, 36, 37, 48, 47
4, 4, 5, 16, 15, 37, 38, 49, 48
5, 5, 6, 17, 16, 38, 39, 50, 49
6, 6, 7, 18, 17, 39, 40, 51, 50
7, 7, 8, 19, 18, 40, 41, 52, 51
8, 8, 9, 20, 19, 41, 42, 53, 52
9, 9, 10, 21, 20, 42, 43, 54, 53
10, 10, 11, 22, 21, 43, 44, 55, 54
11, 12, 13, 24, 23, 45, 46, 57, 56
12, 13, 14, 25, 24, 46, 47, 58, 57
13, 14, 15, 26, 25, 47, 48, 59, 58
14, 15, 16, 27, 26, 48, 49, 60, 59
15, 16, 17, 28, 27, 49, 50, 61, 60
16, 17, 18, 29, 28, 50, 51, 62, 61
17, 18, 19, 30, 29, 51, 52, 63, 62
18, 19, 20, 31, 30, 52, 53, 64, 63
19, 20, 21, 32, 31, 53, 54, 65, 64
20, 21, 22, 33, 32, 54, 55, 66, 65
21, 34, 35, 46, 45, 67, 68, 79, 78
22, 35, 36, 47, 46, 68, 69, 80, 79
23, 36, 37, 48, 47, 69, 70, 81, 80
24, 37, 38, 49, 48, 70, 71, 82, 81
25, 38, 39, 50, 49, 71, 72, 83, 82
26, 39, 40, 51, 50, 72, 73, 84, 83
27, 40, 41, 52, 51, 73, 74, 85, 84
28, 41, 42, 53, 52, 74, 75, 86, 85
29, 42, 43, 54, 53, 75, 76, 87, 86
30, 43, 44, 55, 54, 76, 77, 88, 87
31, 45, 46, 57, 56, 78, 79, 90, 89
32, 46, 47, 58, 57, 79, 80, 91, 90
33, 47, 48, 59, 58, 80, 81, 92, 91
34, 48, 49, 60, 59, 81, 82, 93, 92
35, 49, 50, 61, 60, 82, 83, 94, 93
36, 50, 51, 62, 61, 83, 84, 95, 94
37, 51, 52, 63, 62, 84, 85, 96, 95
38, 52, 53, 64, 63, 85, 86, 97, 96
39, 53, 54, 65, 64, 86, 87, 98, 97
40, 54, 55, 66, 65, 87, 88, 99, 98
*NSET, NSET=LEFT
1, 12, 23, 34, 45, 56, 67, 78
89
*NSET, NSET=RIGHT
11, 22, 33, 44, 55, 66, 77, 88
99
*NSET, NSET=ALL_NODES
1, 2, 3, 4, 5, 6, 7, 8
9, 10, 11, 12, 13, 14, 15, 16
17, 18, 19, 20, 21, 22, 23, 24
25, 26, 27, 28, 29, 30, 31, 32
33, 34, 35, 36, 37, 38, 39, 40
41, 42, 43, 44, 45, 46, 47, 48
49, 50, 51, 52, 53, 54, 55, 56
57, 58, 59, 60, 61, 62, 63, 64
65, 66, 67, 68, 69, 70, 71, 72
73, 74, 75, 76, 77, 78, 79, 80
81, 82, 83, 84, 85, 86, 87, 88
89, 90, 91, 92, 93, 94, 95, 96
97, 98, 99
*MATERIAL, NAME=STEEL_HT
*CONDUCTIVITY
5.000000e+01
*SOLID SECTION, ELSET=BAR, MATERIAL=STEEL_HT
*INITIAL CONDITIONS, TYPE=TEMPERATURE
ALL_NODES, 2.931500e+02
*PHYSICAL CONSTANTS, ABSOLUTE ZERO=0.0
*STEP
*HEAT TRANSFER, STEADY STATE
*BOUNDARY
LEFT, 11, 11, 3.731500e+02
RIGHT, 11, 11, 2.731500e+02
*NODE PRINT, NSET=ALL_NODES
NT
*END STEP
